g9 2 1 0 19 20170614 0 4 0 240	# problem ex5_2_5
 32 19 1 0 3	# vars, constraints, objectives, ranges, eqns
 11 1	# nonlinear constraints, objectives
 0 0	# network constraints: nonlinear, linear
 27 27 27	# nonlinear vars in constraints, objectives, both
 0 0 0 1	# linear network variables; functions; arith, flags
 0 0 0 0 0	# discrete variables: binary, integer, nonlinear (b,c,o)
 206 32	# nonzeros in Jacobian, gradients
 0 0	# max name lengths: constraints, variables
 0 0 0 0 0	# common exprs: b,c,o,c1,o1
b
0 0 1
0 0 1
0 0 1
0 0 1
0 0 1
0 0 1
0 0 1
0 0 1
0 0 1
0 0 1
0 0 1
0 0 1
0 0 100
0 0 200
0 0 100
0 0 100
0 0 100
0 0 100
0 0 200
0 0 100
0 0 100
0 0 100
0 0 100
0 0 200
0 0 100
0 0 100
0 0 100
0 0 100
0 0 200
0 0 100
0 0 100
0 0 100
r
1 50
1 0
1 0
1 0
1 0
1 0
1 0
1 0
1 0
1 0
1 0
1 100
1 200
1 100
1 100
1 100
4 1
4 1
4 1
C0
o54
15
o2
v6
v12
o2
v6
v13
o2
v6
v14
o2
v6
v15
o2
v6
v16
o2
v7
v17
o2
v7
v18
o2
v7
v19
o2
v7
v20
o2
v7
v21
o2
v8
v22
o2
v8
v23
o2
v8
v24
o2
v8
v25
o2
v8
v26
C1
o54
3
o2
o0
n-2.5
o54
4
o2
n3
v0
v3
v6
o2
n1.5
v9
v12
o2
o0
n-2.5
o54
4
o2
n3
v1
v4
v7
o2
n1.5
v10
v17
o2
o0
n-2.5
o54
4
o2
n3
v2
v5
v8
o2
n1.5
v11
v22
C2
o54
3
o2
o0
n-2
o54
4
v0
o2
n3
v3
o2
n2.5
v6
o2
n2.5
v9
v12
o2
o0
n-2
o54
4
v1
o2
n3
v4
o2
n2.5
v7
o2
n2.5
v10
v17
o2
o0
n-2
o54
4
v2
o2
n3
v5
o2
n2.5
v8
o2
n2.5
v11
v22
C3
o54
3
o2
o0
n-1.5
o54
4
o2
n3
v0
v3
v6
o2
n1.5
v9
v13
o2
o0
n-1.5
o54
4
o2
n3
v1
v4
v7
o2
n1.5
v10
v18
o2
o0
n-1.5
o54
4
o2
n3
v2
v5
v8
o2
n1.5
v11
v23
C4
o54
3
o2
o0
n-2.5
o54
4
v0
o2
n3
v3
o2
n2.5
v6
o2
n2.5
v9
v13
o2
o0
n-2.5
o54
4
v1
o2
n3
v4
o2
n2.5
v7
o2
n2.5
v10
v18
o2
o0
n-2.5
o54
4
v2
o2
n3
v5
o2
n2.5
v8
o2
n2.5
v11
v23
C5
o54
3
o2
o0
n-2
o54
4
o2
n3
v0
v3
v6
o2
n1.5
v9
v14
o2
o0
n-2
o54
4
o2
n3
v1
v4
v7
o2
n1.5
v10
v19
o2
o0
n-2
o54
4
o2
n3
v2
v5
v8
o2
n1.5
v11
v24
C6
o54
3
o2
o0
n-2.6
o54
4
v0
o2
n3
v3
o2
n2.5
v6
o2
n2.5
v9
v14
o2
o0
n-2.6
o54
4
v1
o2
n3
v4
o2
n2.5
v7
o2
n2.5
v10
v19
o2
o0
n-2.6
o54
4
v2
o2
n3
v5
o2
n2.5
v8
o2
n2.5
v11
v24
C7
o54
3
o2
o0
n-2
o54
4
o2
n3
v0
v3
v6
o2
n1.5
v9
v15
o2
o0
n-2
o54
4
o2
n3
v1
v4
v7
o2
n1.5
v10
v20
o2
o0
n-2
o54
4
o2
n3
v2
v5
v8
o2
n1.5
v11
v25
C8
o54
3
o2
o0
n-2
o54
4
v0
o2
n3
v3
o2
n2.5
v6
o2
n2.5
v9
v15
o2
o0
n-2
o54
4
v1
o2
n3
v4
o2
n2.5
v7
o2
n2.5
v10
v20
o2
o0
n-2
o54
4
v2
o2
n3
v5
o2
n2.5
v8
o2
n2.5
v11
v25
C9
o54
3
o2
o0
n-2
o54
4
o2
n3
v0
v3
v6
o2
n1.5
v9
v16
o2
o0
n-2
o54
4
o2
n3
v1
v4
v7
o2
n1.5
v10
v21
o2
o0
n-2
o54
4
o2
n3
v2
v5
v8
o2
n1.5
v11
v26
C10
o54
3
o2
o0
n-2
o54
4
v0
o2
n3
v3
o2
n2.5
v6
o2
n2.5
v9
v16
o2
o0
n-2
o54
4
v1
o2
n3
v4
o2
n2.5
v7
o2
n2.5
v10
v21
o2
o0
n-2
o54
4
v2
o2
n3
v5
o2
n2.5
v8
o2
n2.5
v11
v26
C11
n0
C12
n0
C13
n0
C14
n0
C15
n0
C16
n0
C17
n0
C18
n0
O0 0
o16
o54
15
o2
o54
5
n18
o2
n-6
v0
o2
n-16
v3
o2
n-15
v6
o2
n-12
v9
v12
o2
o54
5
n18
o2
n-6
v1
o2
n-16
v4
o2
n-15
v7
o2
n-12
v10
v17
o2
o54
5
n18
o2
n-6
v2
o2
n-16
v5
o2
n-15
v8
o2
n-12
v11
v22
o2
o54
5
n15
o2
n-6
v0
o2
n-16
v3
o2
n-15
v6
o2
n-12
v9
v13
o2
o54
5
n15
o2
n-6
v1
o2
n-16
v4
o2
n-15
v7
o2
n-12
v10
v18
o2
o54
5
n15
o2
n-6
v2
o2
n-16
v5
o2
n-15
v8
o2
n-12
v11
v23
o2
o54
5
n19
o2
n-6
v0
o2
n-16
v3
o2
n-15
v6
o2
n-12
v9
v14
o2
o54
5
n19
o2
n-6
v1
o2
n-16
v4
o2
n-15
v7
o2
n-12
v10
v19
o2
o54
5
n19
o2
n-6
v2
o2
n-16
v5
o2
n-15
v8
o2
n-12
v11
v24
o2
o54
5
n16
o2
n-6
v0
o2
n-16
v3
o2
n-15
v6
o2
n-12
v9
v15
o2
o54
5
n16
o2
n-6
v1
o2
n-16
v4
o2
n-15
v7
o2
n-12
v10
v20
o2
o54
5
n16
o2
n-6
v2
o2
n-16
v5
o2
n-15
v8
o2
n-12
v11
v25
o2
o54
5
n14
o2
n-6
v0
o2
n-16
v3
o2
n-15
v6
o2
n-12
v9
v16
o2
o54
5
n14
o2
n-6
v1
o2
n-16
v4
o2
n-15
v7
o2
n-12
v10
v21
o2
o54
5
n14
o2
n-6
v2
o2
n-16
v5
o2
n-15
v8
o2
n-12
v11
v26
k31
11
22
33
44
55
66
78
90
102
113
124
135
139
143
147
151
155
159
163
167
171
175
179
183
187
191
195
198
200
202
204
J0 18
6 0
7 0
8 0
12 0
13 0
14 0
15 0
16 0
17 0
18 0
19 0
20 0
21 0
22 0
23 0
24 0
25 0
26 0
J1 16
0 0
1 0
2 0
3 0
4 0
5 0
6 0
7 0
8 0
9 0
10 0
11 0
12 0
17 0
22 0
27 -0.5
J2 16
0 0
1 0
2 0
3 0
4 0
5 0
6 0
7 0
8 0
9 0
10 0
11 0
12 0
17 0
22 0
27 0.5
J3 16
0 0
1 0
2 0
3 0
4 0
5 0
6 0
7 0
8 0
9 0
10 0
11 0
13 0
18 0
23 0
28 0.5
J4 15
0 0
1 0
2 0
3 0
4 0
5 0
6 0
7 0
8 0
9 0
10 0
11 0
13 0
18 0
23 0
J5 15
0 0
1 0
2 0
3 0
4 0
5 0
6 0
7 0
8 0
9 0
10 0
11 0
14 0
19 0
24 0
J6 16
0 0
1 0
2 0
3 0
4 0
5 0
6 0
7 0
8 0
9 0
10 0
11 0
14 0
19 0
24 0
29 -0.1
J7 15
0 0
1 0
2 0
3 0
4 0
5 0
6 0
7 0
8 0
9 0
10 0
11 0
15 0
20 0
25 0
J8 16
0 0
1 0
2 0
3 0
4 0
5 0
6 0
7 0
8 0
9 0
10 0
11 0
15 0
20 0
25 0
30 0.5
J9 15
0 0
1 0
2 0
3 0
4 0
5 0
6 0
7 0
8 0
9 0
10 0
11 0
16 0
21 0
26 0
J10 16
0 0
1 0
2 0
3 0
4 0
5 0
6 0
7 0
8 0
9 0
10 0
11 0
16 0
21 0
26 0
31 0.5
J11 4
12 1
17 1
22 1
27 1
J12 4
13 1
18 1
23 1
28 1
J13 4
14 1
19 1
24 1
29 1
J14 4
15 1
20 1
25 1
30 1
J15 4
16 1
21 1
26 1
31 1
J16 4
0 1
3 1
6 1
9 1
J17 4
1 1
4 1
7 1
10 1
J18 4
2 1
5 1
8 1
11 1
G0 32
0 0
1 0
2 0
3 0
4 0
5 0
6 0
7 0
8 0
9 0
10 0
11 0
12 0
13 0
14 0
15 0
16 0
17 0
18 0
19 0
20 0
21 0
22 0
23 0
24 0
25 0
26 0
27 -8
28 -5
29 -9
30 -6
31 -4
